c 
c MolecularSimulation 0.9.3
c Simulation written: Jan 13 2012 -- 15:17:57
c Test: Distribution
c Input: ./data/testCNF/SWEEP_R6_K3_N20_M108_S002.cnf
c 
s UNSATISFIABLE
v 0
c algorithmTime:  1257
c solutionMemory: 0
c mixCount:       321
c extractCount:   0
c appendCount:    16797820
c splitCount:     321
c spliceCount:    7896181
c purifyCount:    107
c 
